language Essence 1.3

letting can_fly be
        relation((1, 1), (1, 5), (1, 8), (1, 9), (1, 10), (1, 11), (1, 12), (1, 14), (1, 15), (1, 17), (1, 18), (1, 19),
                 (1, 20), (1, 21), (1, 23), (1, 26), (1, 27), (2, 1), (2, 2), (2, 3), (2, 4), (2, 6), (2, 7), (2, 9),
                 (2, 13), (2, 17), (2, 18), (2, 21), (2, 22), (2, 23), (2, 24), (2, 26), (3, 1), (3, 2), (3, 3), (3, 4),
                 (3, 5), (3, 7), (3, 11), (3, 16), (3, 18), (3, 19), (3, 22), (3, 24), (3, 25), (3, 26), (3, 27),
                 (4, 7), (4, 12), (4, 14), (4, 15), (4, 16), (4, 17), (4, 19), (4, 25), (4, 27), (5, 1), (5, 4), (5, 5),
                 (5, 6), (5, 9), (5, 10), (5, 11), (5, 12), (5, 14), (5, 15), (5, 18), (5, 19), (5, 20), (5, 22),
                 (5, 23), (6, 2), (6, 4), (6, 5), (6, 8), (6, 9), (6, 10), (6, 15), (6, 16), (6, 17), (6, 18), (6, 20),
                 (6, 21), (6, 23), (6, 26), (7, 2), (7, 3), (7, 5), (7, 8), (7, 12), (7, 14), (7, 21), (7, 26), (7, 27),
                 (8, 1), (8, 3), (8, 5), (8, 6), (8, 10), (8, 12), (8, 15), (8, 16), (8, 18), (8, 19), (8, 21), (8, 25),
                 (8, 26), (8, 27), (9, 2), (9, 6), (9, 8), (9, 13), (9, 14), (9, 15), (9, 17), (9, 21), (9, 25),
                 (9, 27), (10, 2), (10, 3), (10, 6), (10, 7), (10, 9), (10, 10), (10, 11), (10, 12), (10, 14), (10, 15),
                 (10, 16), (10, 18), (10, 19), (10, 20), (10, 22), (10, 23), (10, 24), (11, 3), (11, 4), (11, 6),
                 (11, 8), (11, 9), (11, 10), (11, 12), (11, 13), (11, 15), (11, 19), (11, 20), (11, 21), (11, 22),
                 (11, 23), (11, 26), (11, 27))
$ Visualisation for can_fly
$  1  1
$  1  5
$  1  8
$  1  9
$  1 10
$  1 11
$  1 12
$  1 14
$  1 15
$  1 17
$  1 18
$  1 19
$  1 20
$  1 21
$  1 23
$  1 26
$  1 27
$  2  1
$  2  2
$  2  3
$  2  4
$  2  6
$  2  7
$  2  9
$  2 13
$  2 17
$  2 18
$  2 21
$  2 22
$  2 23
$  2 24
$  2 26
$  3  1
$  3  2
$  3  3
$  3  4
$  3  5
$  3  7
$  3 11
$  3 16
$  3 18
$  3 19
$  3 22
$  3 24
$  3 25
$  3 26
$  3 27
$  4  7
$  4 12
$  4 14
$  4 15
$  4 16
$  4 17
$  4 19
$  4 25
$  4 27
$  5  1
$  5  4
$  5  5
$  5  6
$  5  9
$  5 10
$  5 11
$  5 12
$  5 14
$  5 15
$  5 18
$  5 19
$  5 20
$  5 22
$  5 23
$  6  2
$  6  4
$  6  5
$  6  8
$  6  9
$  6 10
$  6 15
$  6 16
$  6 17
$  6 18
$  6 20
$  6 21
$  6 23
$  6 26
$  7  2
$  7  3
$  7  5
$  7  8
$  7 12
$  7 14
$  7 21
$  7 26
$  7 27
$  8  1
$  8  3
$  8  5
$  8  6
$  8 10
$  8 12
$  8 15
$  8 16
$  8 18
$  8 19
$  8 21
$  8 25
$  8 26
$  8 27
$  9  2
$  9  6
$  9  8
$  9 13
$  9 14
$  9 15
$  9 17
$  9 21
$  9 25
$  9 27
$ 10  2
$ 10  3
$ 10  6
$ 10  7
$ 10  9
$ 10 10
$ 10 11
$ 10 12
$ 10 14
$ 10 15
$ 10 16
$ 10 18
$ 10 19
$ 10 20
$ 10 22
$ 10 23
$ 10 24
$ 11  3
$ 11  4
$ 11  6
$ 11  8
$ 11  9
$ 11 10
$ 11 12
$ 11 13
$ 11 15
$ 11 19
$ 11 20
$ 11 21
$ 11 22
$ 11 23
$ 11 26
$ 11 27

letting carry_in be
        function(1 --> 5, 2 --> 3, 3 --> 12, 4 --> 20, 5 --> 11, 6 --> 17, 7 --> 26, 8 --> 21, 9 --> 7, 10 --> 10,
                 11 --> 13)
letting maint be {4, 5, 6, 8, 9, 11, 12, 13, 15, 16, 18, 20, 21, 24, 25, 27}
letting maint_freq be 17
letting n_flights be 27
letting n_planes be 11
letting network be
        relation((1, 3), (1, 5), (1, 10), (1, 11), (1, 12), (1, 14), (1, 17), (1, 19), (1, 23), (1, 24), (1, 25),
                 (1, 26), (2, 1), (2, 2), (2, 3), (2, 5), (2, 6), (2, 7), (2, 10), (2, 12), (2, 13), (2, 14), (2, 16),
                 (2, 17), (2, 20), (2, 23), (2, 24), (2, 25), (2, 26), (3, 1), (3, 2), (3, 4), (3, 10), (3, 12),
                 (3, 13), (3, 15), (3, 19), (3, 20), (3, 25), (3, 27), (4, 2), (4, 3), (4, 5), (4, 6), (4, 7), (4, 8),
                 (4, 9), (4, 11), (4, 12), (4, 13), (4, 14), (4, 15), (4, 16), (4, 18), (4, 23), (4, 24), (4, 26),
                 (5, 2), (5, 3), (5, 4), (5, 6), (5, 8), (5, 9), (5, 10), (5, 11), (5, 12), (5, 13), (5, 14), (5, 15),
                 (5, 17), (5, 18), (5, 22), (5, 25), (5, 26), (6, 1), (6, 4), (6, 5), (6, 7), (6, 8), (6, 9), (6, 12),
                 (6, 13), (6, 16), (6, 19), (6, 22), (6, 25), (7, 6), (7, 7), (7, 9), (7, 10), (7, 11), (7, 13),
                 (7, 14), (7, 15), (7, 17), (7, 26), (8, 2), (8, 5), (8, 8), (8, 9), (8, 16), (8, 17), (8, 18), (8, 20),
                 (8, 22), (8, 23), (8, 26), (9, 3), (9, 4), (9, 9), (9, 10), (9, 14), (9, 16), (9, 17), (9, 18),
                 (9, 19), (9, 21), (9, 22), (9, 23), (9, 25), (9, 26), (9, 27), (10, 1), (10, 3), (10, 4), (10, 5),
                 (10, 7), (10, 8), (10, 9), (10, 10), (10, 11), (10, 12), (10, 14), (10, 17), (10, 21), (10, 24),
                 (10, 25), (10, 27), (11, 2), (11, 6), (11, 8), (11, 9), (11, 11), (11, 15), (11, 19), (11, 22),
                 (11, 24), (11, 25), (11, 27), (12, 1), (12, 2), (12, 4), (12, 5), (12, 8), (12, 10), (12, 13),
                 (12, 14), (12, 15), (12, 16), (12, 17), (12, 20), (12, 21), (12, 22), (12, 23), (12, 25), (12, 26),
                 (13, 2), (13, 3), (13, 4), (13, 6), (13, 7), (13, 8), (13, 11), (13, 12), (13, 13), (13, 14), (13, 16),
                 (13, 17), (13, 19), (13, 20), (13, 27), (14, 2), (14, 3), (14, 5), (14, 6), (14, 8), (14, 9), (14, 10),
                 (14, 11), (14, 12), (14, 16), (14, 17), (14, 19), (14, 20), (14, 21), (14, 23), (14, 25), (14, 26),
                 (15, 4), (15, 6), (15, 7), (15, 8), (15, 10), (15, 11), (15, 12), (15, 14), (15, 15), (15, 18),
                 (15, 21), (15, 22), (15, 24), (16, 1), (16, 3), (16, 4), (16, 7), (16, 9), (16, 10), (16, 12),
                 (16, 13), (16, 14), (16, 19), (16, 21), (16, 26), (16, 27), (17, 1), (17, 2), (17, 3), (17, 10),
                 (17, 11), (17, 13), (17, 14), (17, 15), (17, 16), (17, 17), (17, 19), (17, 21), (17, 26), (18, 3),
                 (18, 4), (18, 6), (18, 7), (18, 8), (18, 9), (18, 10), (18, 11), (18, 13), (18, 17), (18, 19),
                 (18, 21), (18, 22), (18, 23), (18, 26), (19, 1), (19, 7), (19, 8), (19, 10), (19, 12), (19, 14),
                 (19, 17), (19, 18), (19, 19), (19, 22), (20, 5), (20, 9), (20, 10), (20, 11), (20, 13), (20, 15),
                 (20, 16), (20, 18), (20, 19), (20, 20), (20, 22), (20, 23), (20, 24), (20, 25), (20, 26), (21, 2),
                 (21, 4), (21, 5), (21, 7), (21, 8), (21, 12), (21, 15), (21, 17), (21, 19), (21, 20), (21, 21),
                 (21, 23), (22, 2), (22, 3), (22, 4), (22, 5), (22, 8), (22, 12), (22, 13), (22, 14), (22, 16),
                 (22, 20), (22, 21), (22, 24), (22, 25), (23, 4), (23, 5), (23, 6), (23, 7), (23, 8), (23, 10),
                 (23, 11), (23, 12), (23, 14), (23, 19), (23, 21), (23, 22), (23, 25), (24, 4), (24, 6), (24, 7),
                 (24, 11), (24, 12), (24, 14), (24, 15), (24, 17), (24, 18), (24, 20), (24, 21), (24, 24), (25, 4),
                 (25, 5), (25, 6), (25, 8), (25, 9), (25, 10), (25, 14), (25, 15), (25, 16), (25, 18), (25, 20),
                 (25, 22), (26, 2), (26, 3), (26, 6), (26, 7), (26, 8), (26, 9), (26, 13), (26, 14), (26, 19), (26, 21),
                 (26, 22), (26, 23), (26, 26), (27, 1), (27, 2), (27, 4), (27, 9), (27, 11), (27, 14), (27, 15),
                 (27, 16), (27, 18), (27, 23), (27, 24), (27, 25), (27, 27))
$ Visualisation for network
$  1  3
$  1  5
$  1 10
$  1 11
$  1 12
$  1 14
$  1 17
$  1 19
$  1 23
$  1 24
$  1 25
$  1 26
$  2  1
$  2  2
$  2  3
$  2  5
$  2  6
$  2  7
$  2 10
$  2 12
$  2 13
$  2 14
$  2 16
$  2 17
$  2 20
$  2 23
$  2 24
$  2 25
$  2 26
$  3  1
$  3  2
$  3  4
$  3 10
$  3 12
$  3 13
$  3 15
$  3 19
$  3 20
$  3 25
$  3 27
$  4  2
$  4  3
$  4  5
$  4  6
$  4  7
$  4  8
$  4  9
$  4 11
$  4 12
$  4 13
$  4 14
$  4 15
$  4 16
$  4 18
$  4 23
$  4 24
$  4 26
$  5  2
$  5  3
$  5  4
$  5  6
$  5  8
$  5  9
$  5 10
$  5 11
$  5 12
$  5 13
$  5 14
$  5 15
$  5 17
$  5 18
$  5 22
$  5 25
$  5 26
$  6  1
$  6  4
$  6  5
$  6  7
$  6  8
$  6  9
$  6 12
$  6 13
$  6 16
$  6 19
$  6 22
$  6 25
$  7  6
$  7  7
$  7  9
$  7 10
$  7 11
$  7 13
$  7 14
$  7 15
$  7 17
$  7 26
$  8  2
$  8  5
$  8  8
$  8  9
$  8 16
$  8 17
$  8 18
$  8 20
$  8 22
$  8 23
$  8 26
$  9  3
$  9  4
$  9  9
$  9 10
$  9 14
$  9 16
$  9 17
$  9 18
$  9 19
$  9 21
$  9 22
$  9 23
$  9 25
$  9 26
$  9 27
$ 10  1
$ 10  3
$ 10  4
$ 10  5
$ 10  7
$ 10  8
$ 10  9
$ 10 10
$ 10 11
$ 10 12
$ 10 14
$ 10 17
$ 10 21
$ 10 24
$ 10 25
$ 10 27
$ 11  2
$ 11  6
$ 11  8
$ 11  9
$ 11 11
$ 11 15
$ 11 19
$ 11 22
$ 11 24
$ 11 25
$ 11 27
$ 12  1
$ 12  2
$ 12  4
$ 12  5
$ 12  8
$ 12 10
$ 12 13
$ 12 14
$ 12 15
$ 12 16
$ 12 17
$ 12 20
$ 12 21
$ 12 22
$ 12 23
$ 12 25
$ 12 26
$ 13  2
$ 13  3
$ 13  4
$ 13  6
$ 13  7
$ 13  8
$ 13 11
$ 13 12
$ 13 13
$ 13 14
$ 13 16
$ 13 17
$ 13 19
$ 13 20
$ 13 27
$ 14  2
$ 14  3
$ 14  5
$ 14  6
$ 14  8
$ 14  9
$ 14 10
$ 14 11
$ 14 12
$ 14 16
$ 14 17
$ 14 19
$ 14 20
$ 14 21
$ 14 23
$ 14 25
$ 14 26
$ 15  4
$ 15  6
$ 15  7
$ 15  8
$ 15 10
$ 15 11
$ 15 12
$ 15 14
$ 15 15
$ 15 18
$ 15 21
$ 15 22
$ 15 24
$ 16  1
$ 16  3
$ 16  4
$ 16  7
$ 16  9
$ 16 10
$ 16 12
$ 16 13
$ 16 14
$ 16 19
$ 16 21
$ 16 26
$ 16 27
$ 17  1
$ 17  2
$ 17  3
$ 17 10
$ 17 11
$ 17 13
$ 17 14
$ 17 15
$ 17 16
$ 17 17
$ 17 19
$ 17 21
$ 17 26
$ 18  3
$ 18  4
$ 18  6
$ 18  7
$ 18  8
$ 18  9
$ 18 10
$ 18 11
$ 18 13
$ 18 17
$ 18 19
$ 18 21
$ 18 22
$ 18 23
$ 18 26
$ 19  1
$ 19  7
$ 19  8
$ 19 10
$ 19 12
$ 19 14
$ 19 17
$ 19 18
$ 19 19
$ 19 22
$ 20  5
$ 20  9
$ 20 10
$ 20 11
$ 20 13
$ 20 15
$ 20 16
$ 20 18
$ 20 19
$ 20 20
$ 20 22
$ 20 23
$ 20 24
$ 20 25
$ 20 26
$ 21  2
$ 21  4
$ 21  5
$ 21  7
$ 21  8
$ 21 12
$ 21 15
$ 21 17
$ 21 19
$ 21 20
$ 21 21
$ 21 23
$ 22  2
$ 22  3
$ 22  4
$ 22  5
$ 22  8
$ 22 12
$ 22 13
$ 22 14
$ 22 16
$ 22 20
$ 22 21
$ 22 24
$ 22 25
$ 23  4
$ 23  5
$ 23  6
$ 23  7
$ 23  8
$ 23 10
$ 23 11
$ 23 12
$ 23 14
$ 23 19
$ 23 21
$ 23 22
$ 23 25
$ 24  4
$ 24  6
$ 24  7
$ 24 11
$ 24 12
$ 24 14
$ 24 15
$ 24 17
$ 24 18
$ 24 20
$ 24 21
$ 24 24
$ 25  4
$ 25  5
$ 25  6
$ 25  8
$ 25  9
$ 25 10
$ 25 14
$ 25 15
$ 25 16
$ 25 18
$ 25 20
$ 25 22
$ 26  2
$ 26  3
$ 26  6
$ 26  7
$ 26  8
$ 26  9
$ 26 13
$ 26 14
$ 26 19
$ 26 21
$ 26 22
$ 26 23
$ 26 26
$ 27  1
$ 27  2
$ 27  4
$ 27  9
$ 27 11
$ 27 14
$ 27 15
$ 27 16
$ 27 18
$ 27 23
$ 27 24
$ 27 25
$ 27 27

